; benchmark generated from python API
(set-info :status unknown)
(declare-fun cell_1_6 () Int)
(declare-fun cell_1_8 () Int)
(declare-fun cell_2_5 () Int)
(declare-fun cell_2_7 () Int)
(declare-fun cell_3_2 () Int)
(declare-fun cell_3_3 () Int)
(declare-fun cell_4_4 () Int)
(declare-fun cell_5_8 () Int)
(declare-fun cell_6_1 () Int)
(declare-fun cell_7_9 () Int)
(declare-fun cell_8_2 () Int)
(declare-fun cell_9_5 () Int)
(declare-fun cell_1_1 () Int)
(declare-fun cell_2_1 () Int)
(declare-fun cell_3_1 () Int)
(declare-fun cell_4_1 () Int)
(declare-fun cell_5_1 () Int)
(declare-fun cell_7_1 () Int)
(declare-fun cell_8_1 () Int)
(declare-fun cell_9_1 () Int)
(declare-fun cell_1_2 () Int)
(declare-fun cell_2_2 () Int)
(declare-fun cell_4_2 () Int)
(declare-fun cell_5_2 () Int)
(declare-fun cell_6_2 () Int)
(declare-fun cell_7_2 () Int)
(declare-fun cell_9_2 () Int)
(declare-fun cell_1_3 () Int)
(declare-fun cell_2_3 () Int)
(declare-fun cell_4_3 () Int)
(declare-fun cell_5_3 () Int)
(declare-fun cell_6_3 () Int)
(declare-fun cell_7_3 () Int)
(declare-fun cell_8_3 () Int)
(declare-fun cell_9_3 () Int)
(declare-fun cell_1_4 () Int)
(declare-fun cell_2_4 () Int)
(declare-fun cell_3_4 () Int)
(declare-fun cell_5_4 () Int)
(declare-fun cell_6_4 () Int)
(declare-fun cell_7_4 () Int)
(declare-fun cell_8_4 () Int)
(declare-fun cell_9_4 () Int)
(declare-fun cell_1_5 () Int)
(declare-fun cell_3_5 () Int)
(declare-fun cell_4_5 () Int)
(declare-fun cell_5_5 () Int)
(declare-fun cell_6_5 () Int)
(declare-fun cell_7_5 () Int)
(declare-fun cell_8_5 () Int)
(declare-fun cell_2_6 () Int)
(declare-fun cell_3_6 () Int)
(declare-fun cell_4_6 () Int)
(declare-fun cell_5_6 () Int)
(declare-fun cell_6_6 () Int)
(declare-fun cell_7_6 () Int)
(declare-fun cell_8_6 () Int)
(declare-fun cell_9_6 () Int)
(declare-fun cell_1_7 () Int)
(declare-fun cell_3_7 () Int)
(declare-fun cell_4_7 () Int)
(declare-fun cell_5_7 () Int)
(declare-fun cell_6_7 () Int)
(declare-fun cell_7_7 () Int)
(declare-fun cell_8_7 () Int)
(declare-fun cell_9_7 () Int)
(declare-fun cell_2_8 () Int)
(declare-fun cell_3_8 () Int)
(declare-fun cell_4_8 () Int)
(declare-fun cell_6_8 () Int)
(declare-fun cell_7_8 () Int)
(declare-fun cell_8_8 () Int)
(declare-fun cell_9_8 () Int)
(declare-fun cell_1_9 () Int)
(declare-fun cell_2_9 () Int)
(declare-fun cell_3_9 () Int)
(declare-fun cell_4_9 () Int)
(declare-fun cell_5_9 () Int)
(declare-fun cell_6_9 () Int)
(declare-fun cell_8_9 () Int)
(declare-fun cell_9_9 () Int)
(assert
 (= cell_1_6 1))
(assert
 (= cell_1_8 2))
(assert
 (= cell_2_5 2))
(assert
 (= cell_2_7 1))
(assert
 (= cell_3_2 2))
(assert
 (= cell_3_3 1))
(assert
 (= cell_4_4 1))
(assert
 (= cell_5_8 1))
(assert
 (= cell_6_1 1))
(assert
 (= cell_7_9 1))
(assert
 (= cell_8_2 1))
(assert
 (= cell_9_5 1))
(assert
 (let (($x22 (= cell_1_1 9)))
 (let (($x1107 (= cell_1_1 8)))
 (let (($x1472 (= cell_1_1 7)))
 (let (($x2989 (= cell_1_1 6)))
 (let (($x4392 (= cell_1_1 5)))
 (let (($x4116 (= cell_1_1 4)))
 (let (($x1725 (= cell_1_1 3)))
 (let (($x4125 (= cell_1_1 2)))
 (let (($x2717 (= cell_1_1 1)))
 (or $x2717 $x4125 $x1725 $x4116 $x4392 $x2989 $x1472 $x1107 $x22)))))))))))
(assert
 (let (($x88 (= cell_2_1 9)))
 (let (($x3937 (= cell_2_1 8)))
 (let (($x4735 (= cell_2_1 7)))
 (let (($x4699 (= cell_2_1 6)))
 (let (($x885 (= cell_2_1 5)))
 (let (($x394 (= cell_2_1 4)))
 (let (($x4461 (= cell_2_1 3)))
 (let (($x518 (= cell_2_1 2)))
 (let (($x1114 (= cell_2_1 1)))
 (or $x1114 $x518 $x4461 $x394 $x885 $x4699 $x4735 $x3937 $x88)))))))))))
(assert
 (let (($x3865 (= cell_3_1 9)))
 (let (($x3853 (= cell_3_1 8)))
 (let (($x1502 (= cell_3_1 7)))
 (let (($x1921 (= cell_3_1 6)))
 (let (($x2195 (= cell_3_1 5)))
 (let (($x1545 (= cell_3_1 4)))
 (let (($x1772 (= cell_3_1 3)))
 (let (($x4889 (= cell_3_1 2)))
 (let (($x4515 (= cell_3_1 1)))
 (or $x4515 $x4889 $x1772 $x1545 $x2195 $x1921 $x1502 $x3853 $x3865)))))))))))
(assert
 (let (($x18 (= cell_4_1 9)))
 (let (($x5154 (= cell_4_1 8)))
 (let (($x2793 (= cell_4_1 7)))
 (let (($x3689 (= cell_4_1 6)))
 (let (($x2846 (= cell_4_1 5)))
 (let (($x576 (= cell_4_1 4)))
 (let (($x2194 (= cell_4_1 3)))
 (let (($x2443 (= cell_4_1 2)))
 (let (($x2547 (= cell_4_1 1)))
 (or $x2547 $x2443 $x2194 $x576 $x2846 $x3689 $x2793 $x5154 $x18)))))))))))
(assert
 (let (($x4967 (= cell_5_1 9)))
 (let (($x1193 (= cell_5_1 8)))
 (let (($x3870 (= cell_5_1 7)))
 (let (($x5148 (= cell_5_1 6)))
 (let (($x4657 (= cell_5_1 5)))
 (let (($x279 (= cell_5_1 4)))
 (let (($x5408 (= cell_5_1 3)))
 (let (($x4210 (= cell_5_1 2)))
 (let (($x1062 (= cell_5_1 1)))
 (or $x1062 $x4210 $x5408 $x279 $x4657 $x5148 $x3870 $x1193 $x4967)))))))))))
(assert
 (let (($x4633 (= cell_6_1 1)))
 (or $x4633 (= cell_6_1 2) (= cell_6_1 3) (= cell_6_1 4) (= cell_6_1 5) (= cell_6_1 6) (= cell_6_1 7) (= cell_6_1 8) (= cell_6_1 9))))
(assert
 (let (($x2906 (= cell_7_1 9)))
 (let (($x8475 (= cell_7_1 8)))
 (let (($x5025 (= cell_7_1 7)))
 (let (($x4270 (= cell_7_1 6)))
 (let (($x3761 (= cell_7_1 5)))
 (let (($x5531 (= cell_7_1 4)))
 (let (($x2308 (= cell_7_1 3)))
 (let (($x1039 (= cell_7_1 2)))
 (let (($x3568 (= cell_7_1 1)))
 (or $x3568 $x1039 $x2308 $x5531 $x3761 $x4270 $x5025 $x8475 $x2906)))))))))))
(assert
 (let (($x797 (= cell_8_1 9)))
 (let (($x2941 (= cell_8_1 8)))
 (let (($x4516 (= cell_8_1 7)))
 (let (($x2054 (= cell_8_1 6)))
 (let (($x1906 (= cell_8_1 5)))
 (let (($x4605 (= cell_8_1 4)))
 (let (($x4237 (= cell_8_1 3)))
 (let (($x3476 (= cell_8_1 2)))
 (let (($x9085 (= cell_8_1 1)))
 (or $x9085 $x3476 $x4237 $x4605 $x1906 $x2054 $x4516 $x2941 $x797)))))))))))
(assert
 (let (($x111 (= cell_9_1 9)))
 (let (($x2640 (= cell_9_1 8)))
 (let (($x2499 (= cell_9_1 7)))
 (let (($x2285 (= cell_9_1 6)))
 (let (($x62 (= cell_9_1 5)))
 (let (($x1885 (= cell_9_1 4)))
 (let (($x4638 (= cell_9_1 3)))
 (let (($x2432 (= cell_9_1 2)))
 (let (($x5720 (= cell_9_1 1)))
 (or $x5720 $x2432 $x4638 $x1885 $x62 $x2285 $x2499 $x2640 $x111)))))))))))
(assert
 (let (($x4585 (= cell_1_2 9)))
 (let (($x3431 (= cell_1_2 8)))
 (let (($x4090 (= cell_1_2 7)))
 (let (($x4170 (= cell_1_2 6)))
 (let (($x4089 (= cell_1_2 5)))
 (let (($x5712 (= cell_1_2 4)))
 (let (($x1872 (= cell_1_2 3)))
 (let (($x6582 (= cell_1_2 2)))
 (let (($x1964 (= cell_1_2 1)))
 (or $x1964 $x6582 $x1872 $x5712 $x4089 $x4170 $x4090 $x3431 $x4585)))))))))))
(assert
 (let (($x4407 (= cell_2_2 9)))
 (let (($x3628 (= cell_2_2 8)))
 (let (($x4379 (= cell_2_2 7)))
 (let (($x7555 (= cell_2_2 6)))
 (let (($x936 (= cell_2_2 5)))
 (let (($x2795 (= cell_2_2 4)))
 (let (($x3106 (= cell_2_2 3)))
 (let (($x3057 (= cell_2_2 2)))
 (let (($x5249 (= cell_2_2 1)))
 (or $x5249 $x3057 $x3106 $x2795 $x936 $x7555 $x4379 $x3628 $x4407)))))))))))
(assert
 (let (($x2046 (= cell_3_2 2)))
 (or (= cell_3_2 1) $x2046 (= cell_3_2 3) (= cell_3_2 4) (= cell_3_2 5) (= cell_3_2 6) (= cell_3_2 7) (= cell_3_2 8) (= cell_3_2 9))))
(assert
 (let (($x5603 (= cell_4_2 9)))
 (let (($x3046 (= cell_4_2 8)))
 (let (($x6314 (= cell_4_2 7)))
 (let (($x5961 (= cell_4_2 6)))
 (let (($x4377 (= cell_4_2 5)))
 (let (($x4029 (= cell_4_2 4)))
 (let (($x4113 (= cell_4_2 3)))
 (let (($x516 (= cell_4_2 2)))
 (let (($x105 (= cell_4_2 1)))
 (or $x105 $x516 $x4113 $x4029 $x4377 $x5961 $x6314 $x3046 $x5603)))))))))))
(assert
 (let (($x5351 (= cell_5_2 9)))
 (let (($x1930 (= cell_5_2 8)))
 (let (($x5403 (= cell_5_2 7)))
 (let (($x802 (= cell_5_2 6)))
 (let (($x202 (= cell_5_2 5)))
 (let (($x2314 (= cell_5_2 4)))
 (let (($x5172 (= cell_5_2 3)))
 (let (($x3754 (= cell_5_2 2)))
 (let (($x3726 (= cell_5_2 1)))
 (or $x3726 $x3754 $x5172 $x2314 $x202 $x802 $x5403 $x1930 $x5351)))))))))))
(assert
 (let (($x4035 (= cell_6_2 9)))
 (let (($x2075 (= cell_6_2 8)))
 (let (($x3809 (= cell_6_2 7)))
 (let (($x1542 (= cell_6_2 6)))
 (let (($x4510 (= cell_6_2 5)))
 (let (($x2056 (= cell_6_2 4)))
 (let (($x756 (= cell_6_2 3)))
 (let (($x2823 (= cell_6_2 2)))
 (let (($x30 (= cell_6_2 1)))
 (or $x30 $x2823 $x756 $x2056 $x4510 $x1542 $x3809 $x2075 $x4035)))))))))))
(assert
 (let (($x6547 (= cell_7_2 9)))
 (let (($x2352 (= cell_7_2 8)))
 (let (($x5279 (= cell_7_2 7)))
 (let (($x4433 (= cell_7_2 6)))
 (let (($x6912 (= cell_7_2 5)))
 (let (($x307 (= cell_7_2 4)))
 (let (($x1171 (= cell_7_2 3)))
 (let (($x872 (= cell_7_2 2)))
 (let (($x2506 (= cell_7_2 1)))
 (or $x2506 $x872 $x1171 $x307 $x6912 $x4433 $x5279 $x2352 $x6547)))))))))))
(assert
 (let (($x4414 (= cell_8_2 1)))
 (or $x4414 (= cell_8_2 2) (= cell_8_2 3) (= cell_8_2 4) (= cell_8_2 5) (= cell_8_2 6) (= cell_8_2 7) (= cell_8_2 8) (= cell_8_2 9))))
(assert
 (let (($x3799 (= cell_9_2 9)))
 (let (($x70 (= cell_9_2 8)))
 (let (($x1005 (= cell_9_2 7)))
 (let (($x6330 (= cell_9_2 6)))
 (let (($x4277 (= cell_9_2 5)))
 (let (($x1924 (= cell_9_2 4)))
 (let (($x5453 (= cell_9_2 3)))
 (let (($x5897 (= cell_9_2 2)))
 (let (($x862 (= cell_9_2 1)))
 (or $x862 $x5897 $x5453 $x1924 $x4277 $x6330 $x1005 $x70 $x3799)))))))))))
(assert
 (let (($x594 (= cell_1_3 9)))
 (let (($x2413 (= cell_1_3 8)))
 (let (($x618 (= cell_1_3 7)))
 (let (($x708 (= cell_1_3 6)))
 (let (($x2936 (= cell_1_3 5)))
 (let (($x754 (= cell_1_3 4)))
 (let (($x4296 (= cell_1_3 3)))
 (let (($x4524 (= cell_1_3 2)))
 (let (($x5562 (= cell_1_3 1)))
 (or $x5562 $x4524 $x4296 $x754 $x2936 $x708 $x618 $x2413 $x594)))))))))))
(assert
 (let (($x3764 (= cell_2_3 9)))
 (let (($x6133 (= cell_2_3 8)))
 (let (($x4606 (= cell_2_3 7)))
 (let (($x5851 (= cell_2_3 6)))
 (let (($x4285 (= cell_2_3 5)))
 (let (($x3825 (= cell_2_3 4)))
 (let (($x1869 (= cell_2_3 3)))
 (let (($x1417 (= cell_2_3 2)))
 (let (($x5535 (= cell_2_3 1)))
 (or $x5535 $x1417 $x1869 $x3825 $x4285 $x5851 $x4606 $x6133 $x3764)))))))))))
(assert
 (let (($x2783 (= cell_3_3 1)))
 (or $x2783 (= cell_3_3 2) (= cell_3_3 3) (= cell_3_3 4) (= cell_3_3 5) (= cell_3_3 6) (= cell_3_3 7) (= cell_3_3 8) (= cell_3_3 9))))
(assert
 (let (($x6558 (= cell_4_3 9)))
 (let (($x1235 (= cell_4_3 8)))
 (let (($x1494 (= cell_4_3 7)))
 (let (($x4057 (= cell_4_3 6)))
 (let (($x1409 (= cell_4_3 5)))
 (let (($x1597 (= cell_4_3 4)))
 (let (($x3184 (= cell_4_3 3)))
 (let (($x3362 (= cell_4_3 2)))
 (let (($x118 (= cell_4_3 1)))
 (or $x118 $x3362 $x3184 $x1597 $x1409 $x4057 $x1494 $x1235 $x6558)))))))))))
(assert
 (let (($x4410 (= cell_5_3 9)))
 (let (($x3064 (= cell_5_3 8)))
 (let (($x54 (= cell_5_3 7)))
 (let (($x1821 (= cell_5_3 6)))
 (let (($x5918 (= cell_5_3 5)))
 (let (($x3964 (= cell_5_3 4)))
 (let (($x6367 (= cell_5_3 3)))
 (let (($x5699 (= cell_5_3 2)))
 (let (($x6372 (= cell_5_3 1)))
 (or $x6372 $x5699 $x6367 $x3964 $x5918 $x1821 $x54 $x3064 $x4410)))))))))))
(assert
 (let (($x376 (= cell_6_3 2)))
 (let (($x2951 (= cell_6_3 1)))
 (or $x2951 $x376 (= cell_6_3 3) (= cell_6_3 4) (= cell_6_3 5) (= cell_6_3 6) (= cell_6_3 7) (= cell_6_3 8) (= cell_6_3 9)))))
(assert
 (let (($x5885 (= cell_7_3 9)))
 (let (($x3579 (= cell_7_3 8)))
 (let (($x5444 (= cell_7_3 7)))
 (let (($x730 (= cell_7_3 6)))
 (let (($x4885 (= cell_7_3 5)))
 (let (($x4625 (= cell_7_3 4)))
 (let (($x2987 (= cell_7_3 3)))
 (let (($x3492 (= cell_7_3 2)))
 (let (($x807 (= cell_7_3 1)))
 (or $x807 $x3492 $x2987 $x4625 $x4885 $x730 $x5444 $x3579 $x5885)))))))))))
(assert
 (let (($x1301 (= cell_8_3 1)))
 (or $x1301 (= cell_8_3 2) (= cell_8_3 3) (= cell_8_3 4) (= cell_8_3 5) (= cell_8_3 6) (= cell_8_3 7) (= cell_8_3 8) (= cell_8_3 9))))
(assert
 (let (($x5044 (= cell_9_3 9)))
 (let (($x3252 (= cell_9_3 8)))
 (let (($x3864 (= cell_9_3 7)))
 (let (($x1643 (= cell_9_3 6)))
 (let (($x4409 (= cell_9_3 5)))
 (let (($x68 (= cell_9_3 4)))
 (let (($x1131 (= cell_9_3 3)))
 (let (($x5522 (= cell_9_3 2)))
 (let (($x2630 (= cell_9_3 1)))
 (or $x2630 $x5522 $x1131 $x68 $x4409 $x1643 $x3864 $x3252 $x5044)))))))))))
(assert
 (let (($x5455 (= cell_1_4 9)))
 (let (($x4406 (= cell_1_4 8)))
 (let (($x4466 (= cell_1_4 7)))
 (let (($x4013 (= cell_1_4 6)))
 (let (($x1778 (= cell_1_4 5)))
 (let (($x2502 (= cell_1_4 4)))
 (let (($x5178 (= cell_1_4 3)))
 (let (($x3142 (= cell_1_4 2)))
 (let (($x3755 (= cell_1_4 1)))
 (or $x3755 $x3142 $x5178 $x2502 $x1778 $x4013 $x4466 $x4406 $x5455)))))))))))
(assert
 (let (($x139 (= cell_2_4 9)))
 (let (($x6022 (= cell_2_4 8)))
 (let (($x3003 (= cell_2_4 7)))
 (let (($x4484 (= cell_2_4 6)))
 (let (($x648 (= cell_2_4 5)))
 (let (($x5040 (= cell_2_4 4)))
 (let (($x3501 (= cell_2_4 3)))
 (let (($x879 (= cell_2_4 2)))
 (let (($x3745 (= cell_2_4 1)))
 (or $x3745 $x879 $x3501 $x5040 $x648 $x4484 $x3003 $x6022 $x139)))))))))))
(assert
 (let (($x1137 (= cell_3_4 9)))
 (let (($x2932 (= cell_3_4 8)))
 (let (($x382 (= cell_3_4 7)))
 (let (($x4737 (= cell_3_4 6)))
 (let (($x6320 (= cell_3_4 5)))
 (let (($x3071 (= cell_3_4 4)))
 (let (($x5924 (= cell_3_4 3)))
 (let (($x4594 (= cell_3_4 2)))
 (let (($x3956 (= cell_3_4 1)))
 (or $x3956 $x4594 $x5924 $x3071 $x6320 $x4737 $x382 $x2932 $x1137)))))))))))
(assert
 (let (($x4264 (= cell_4_4 1)))
 (or $x4264 (= cell_4_4 2) (= cell_4_4 3) (= cell_4_4 4) (= cell_4_4 5) (= cell_4_4 6) (= cell_4_4 7) (= cell_4_4 8) (= cell_4_4 9))))
(assert
 (let (($x6003 (= cell_5_4 9)))
 (let (($x3410 (= cell_5_4 8)))
 (let (($x3921 (= cell_5_4 7)))
 (let (($x954 (= cell_5_4 6)))
 (let (($x2043 (= cell_5_4 5)))
 (let (($x317 (= cell_5_4 4)))
 (let (($x4415 (= cell_5_4 3)))
 (let (($x4212 (= cell_5_4 2)))
 (let (($x5794 (= cell_5_4 1)))
 (or $x5794 $x4212 $x4415 $x317 $x2043 $x954 $x3921 $x3410 $x6003)))))))))))
(assert
 (let (($x2468 (= cell_6_4 1)))
 (or $x2468 (= cell_6_4 2) (= cell_6_4 3) (= cell_6_4 4) (= cell_6_4 5) (= cell_6_4 6) (= cell_6_4 7) (= cell_6_4 8) (= cell_6_4 9))))
(assert
 (let (($x500 (= cell_7_4 9)))
 (let (($x4167 (= cell_7_4 8)))
 (let (($x5744 (= cell_7_4 7)))
 (let (($x4221 (= cell_7_4 6)))
 (let (($x4477 (= cell_7_4 5)))
 (let (($x3914 (= cell_7_4 4)))
 (let (($x6407 (= cell_7_4 3)))
 (let (($x2904 (= cell_7_4 2)))
 (let (($x722 (= cell_7_4 1)))
 (or $x722 $x2904 $x6407 $x3914 $x4477 $x4221 $x5744 $x4167 $x500)))))))))))
(assert
 (let (($x4604 (= cell_8_4 9)))
 (let (($x4018 (= cell_8_4 8)))
 (let (($x490 (= cell_8_4 7)))
 (let (($x609 (= cell_8_4 6)))
 (let (($x412 (= cell_8_4 5)))
 (let (($x4053 (= cell_8_4 4)))
 (let (($x4779 (= cell_8_4 3)))
 (let (($x1600 (= cell_8_4 2)))
 (let (($x2887 (= cell_8_4 1)))
 (or $x2887 $x1600 $x4779 $x4053 $x412 $x609 $x490 $x4018 $x4604)))))))))))
(assert
 (let (($x5441 (= cell_9_4 9)))
 (let (($x1484 (= cell_9_4 8)))
 (let (($x6046 (= cell_9_4 7)))
 (let (($x1034 (= cell_9_4 6)))
 (let (($x2727 (= cell_9_4 5)))
 (let (($x4207 (= cell_9_4 4)))
 (let (($x5715 (= cell_9_4 3)))
 (let (($x6060 (= cell_9_4 2)))
 (let (($x1900 (= cell_9_4 1)))
 (or $x1900 $x6060 $x5715 $x4207 $x2727 $x1034 $x6046 $x1484 $x5441)))))))))))
(assert
 (let (($x4263 (= cell_1_5 9)))
 (let (($x3880 (= cell_1_5 8)))
 (let (($x3389 (= cell_1_5 7)))
 (let (($x5463 (= cell_1_5 6)))
 (let (($x3777 (= cell_1_5 5)))
 (let (($x2619 (= cell_1_5 4)))
 (let (($x3177 (= cell_1_5 3)))
 (let (($x1712 (= cell_1_5 2)))
 (let (($x1279 (= cell_1_5 1)))
 (or $x1279 $x1712 $x3177 $x2619 $x3777 $x5463 $x3389 $x3880 $x4263)))))))))))
(assert
 (let (($x143 (= cell_2_5 2)))
 (or (= cell_2_5 1) $x143 (= cell_2_5 3) (= cell_2_5 4) (= cell_2_5 5) (= cell_2_5 6) (= cell_2_5 7) (= cell_2_5 8) (= cell_2_5 9))))
(assert
 (let (($x2237 (= cell_3_5 9)))
 (let (($x1841 (= cell_3_5 8)))
 (let (($x6176 (= cell_3_5 7)))
 (let (($x5194 (= cell_3_5 6)))
 (let (($x1796 (= cell_3_5 5)))
 (let (($x4609 (= cell_3_5 4)))
 (let (($x2239 (= cell_3_5 3)))
 (let (($x6131 (= cell_3_5 2)))
 (let (($x2428 (= cell_3_5 1)))
 (or $x2428 $x6131 $x2239 $x4609 $x1796 $x5194 $x6176 $x1841 $x2237)))))))))))
(assert
 (let (($x4156 (= cell_4_5 9)))
 (let (($x1222 (= cell_4_5 8)))
 (let (($x10 (= cell_4_5 7)))
 (let (($x3474 (= cell_4_5 6)))
 (let (($x1605 (= cell_4_5 5)))
 (let (($x4497 (= cell_4_5 4)))
 (let (($x4046 (= cell_4_5 3)))
 (let (($x5299 (= cell_4_5 2)))
 (let (($x5900 (= cell_4_5 1)))
 (or $x5900 $x5299 $x4046 $x4497 $x1605 $x3474 $x10 $x1222 $x4156)))))))))))
(assert
 (let (($x2714 (= cell_5_5 9)))
 (let (($x3456 (= cell_5_5 8)))
 (let (($x145 (= cell_5_5 7)))
 (let (($x2741 (= cell_5_5 6)))
 (let (($x3666 (= cell_5_5 5)))
 (let (($x1832 (= cell_5_5 4)))
 (let (($x3952 (= cell_5_5 3)))
 (let (($x171 (= cell_5_5 2)))
 (let (($x3728 (= cell_5_5 1)))
 (or $x3728 $x171 $x3952 $x1832 $x3666 $x2741 $x145 $x3456 $x2714)))))))))))
(assert
 (let (($x67 (= cell_6_5 9)))
 (let (($x1442 (= cell_6_5 8)))
 (let (($x3087 (= cell_6_5 7)))
 (let (($x3441 (= cell_6_5 6)))
 (let (($x5082 (= cell_6_5 5)))
 (let (($x4519 (= cell_6_5 4)))
 (let (($x5001 (= cell_6_5 3)))
 (let (($x6997 (= cell_6_5 2)))
 (let (($x927 (= cell_6_5 1)))
 (or $x927 $x6997 $x5001 $x4519 $x5082 $x3441 $x3087 $x1442 $x67)))))))))))
(assert
 (let (($x5375 (= cell_7_5 9)))
 (let (($x591 (= cell_7_5 8)))
 (let (($x1902 (= cell_7_5 7)))
 (let (($x1453 (= cell_7_5 6)))
 (let (($x3551 (= cell_7_5 5)))
 (let (($x1977 (= cell_7_5 4)))
 (let (($x2157 (= cell_7_5 3)))
 (let (($x9258 (= cell_7_5 2)))
 (let (($x4750 (= cell_7_5 1)))
 (or $x4750 $x9258 $x2157 $x1977 $x3551 $x1453 $x1902 $x591 $x5375)))))))))))
(assert
 (let (($x3741 (= cell_8_5 9)))
 (let (($x5895 (= cell_8_5 8)))
 (let (($x40 (= cell_8_5 7)))
 (let (($x4054 (= cell_8_5 6)))
 (let (($x4717 (= cell_8_5 5)))
 (let (($x5809 (= cell_8_5 4)))
 (let (($x3545 (= cell_8_5 3)))
 (let (($x1180 (= cell_8_5 2)))
 (let (($x378 (= cell_8_5 1)))
 (or $x378 $x1180 $x3545 $x5809 $x4717 $x4054 $x40 $x5895 $x3741)))))))))))
(assert
 (let (($x4929 (= cell_9_5 1)))
 (or $x4929 (= cell_9_5 2) (= cell_9_5 3) (= cell_9_5 4) (= cell_9_5 5) (= cell_9_5 6) (= cell_9_5 7) (= cell_9_5 8) (= cell_9_5 9))))
(assert
 (let (($x2592 (= cell_1_6 1)))
 (or $x2592 (= cell_1_6 2) (= cell_1_6 3) (= cell_1_6 4) (= cell_1_6 5) (= cell_1_6 6) (= cell_1_6 7) (= cell_1_6 8) (= cell_1_6 9))))
(assert
 (let (($x1818 (= cell_2_6 9)))
 (let (($x1431 (= cell_2_6 8)))
 (let (($x3722 (= cell_2_6 7)))
 (let (($x3014 (= cell_2_6 6)))
 (let (($x3900 (= cell_2_6 5)))
 (let (($x3687 (= cell_2_6 4)))
 (let (($x3265 (= cell_2_6 3)))
 (let (($x5089 (= cell_2_6 2)))
 (let (($x1742 (= cell_2_6 1)))
 (or $x1742 $x5089 $x3265 $x3687 $x3900 $x3014 $x3722 $x1431 $x1818)))))))))))
(assert
 (let (($x6044 (= cell_3_6 2)))
 (let (($x5057 (= cell_3_6 1)))
 (or $x5057 $x6044 (= cell_3_6 3) (= cell_3_6 4) (= cell_3_6 5) (= cell_3_6 6) (= cell_3_6 7) (= cell_3_6 8) (= cell_3_6 9)))))
(assert
 (let (($x2669 (= cell_4_6 1)))
 (or $x2669 (= cell_4_6 2) (= cell_4_6 3) (= cell_4_6 4) (= cell_4_6 5) (= cell_4_6 6) (= cell_4_6 7) (= cell_4_6 8) (= cell_4_6 9))))
(assert
 (let (($x1267 (= cell_5_6 9)))
 (let (($x1017 (= cell_5_6 8)))
 (let (($x970 (= cell_5_6 7)))
 (let (($x4136 (= cell_5_6 6)))
 (let (($x1021 (= cell_5_6 5)))
 (let (($x6295 (= cell_5_6 4)))
 (let (($x5224 (= cell_5_6 3)))
 (let (($x233 (= cell_5_6 2)))
 (let (($x6418 (= cell_5_6 1)))
 (or $x6418 $x233 $x5224 $x6295 $x1021 $x4136 $x970 $x1017 $x1267)))))))))))
(assert
 (let (($x5382 (= cell_6_6 1)))
 (or $x5382 (= cell_6_6 2) (= cell_6_6 3) (= cell_6_6 4) (= cell_6_6 5) (= cell_6_6 6) (= cell_6_6 7) (= cell_6_6 8) (= cell_6_6 9))))
(assert
 (let (($x5466 (= cell_7_6 9)))
 (let (($x4364 (= cell_7_6 8)))
 (let (($x1154 (= cell_7_6 7)))
 (let (($x3756 (= cell_7_6 6)))
 (let (($x3869 (= cell_7_6 5)))
 (let (($x4671 (= cell_7_6 4)))
 (let (($x5770 (= cell_7_6 3)))
 (let (($x315 (= cell_7_6 2)))
 (let (($x3496 (= cell_7_6 1)))
 (or $x3496 $x315 $x5770 $x4671 $x3869 $x3756 $x1154 $x4364 $x5466)))))))))))
(assert
 (let (($x434 (= cell_8_6 9)))
 (let (($x74 (= cell_8_6 8)))
 (let (($x4327 (= cell_8_6 7)))
 (let (($x2029 (= cell_8_6 6)))
 (let (($x285 (= cell_8_6 5)))
 (let (($x5405 (= cell_8_6 4)))
 (let (($x5872 (= cell_8_6 3)))
 (let (($x5652 (= cell_8_6 2)))
 (let (($x1652 (= cell_8_6 1)))
 (or $x1652 $x5652 $x5872 $x5405 $x285 $x2029 $x4327 $x74 $x434)))))))))))
(assert
 (let (($x4906 (= cell_9_6 1)))
 (or $x4906 (= cell_9_6 2) (= cell_9_6 3) (= cell_9_6 4) (= cell_9_6 5) (= cell_9_6 6) (= cell_9_6 7) (= cell_9_6 8) (= cell_9_6 9))))
(assert
 (let (($x5293 (= cell_1_7 9)))
 (let (($x3860 (= cell_1_7 8)))
 (let (($x185 (= cell_1_7 7)))
 (let (($x4445 (= cell_1_7 6)))
 (let (($x5682 (= cell_1_7 5)))
 (let (($x3805 (= cell_1_7 4)))
 (let (($x4055 (= cell_1_7 3)))
 (let (($x2626 (= cell_1_7 2)))
 (let (($x2878 (= cell_1_7 1)))
 (or $x2878 $x2626 $x4055 $x3805 $x5682 $x4445 $x185 $x3860 $x5293)))))))))))
(assert
 (let (($x2593 (= cell_2_7 1)))
 (or $x2593 (= cell_2_7 2) (= cell_2_7 3) (= cell_2_7 4) (= cell_2_7 5) (= cell_2_7 6) (= cell_2_7 7) (= cell_2_7 8) (= cell_2_7 9))))
(assert
 (let (($x2121 (= cell_3_7 2)))
 (let (($x5669 (= cell_3_7 1)))
 (or $x5669 $x2121 (= cell_3_7 3) (= cell_3_7 4) (= cell_3_7 5) (= cell_3_7 6) (= cell_3_7 7) (= cell_3_7 8) (= cell_3_7 9)))))
(assert
 (let (($x6308 (= cell_4_7 9)))
 (let (($x5753 (= cell_4_7 8)))
 (let (($x8365 (= cell_4_7 7)))
 (let (($x5591 (= cell_4_7 6)))
 (let (($x3086 (= cell_4_7 5)))
 (let (($x1698 (= cell_4_7 4)))
 (let (($x6084 (= cell_4_7 3)))
 (let (($x1786 (= cell_4_7 2)))
 (let (($x207 (= cell_4_7 1)))
 (or $x207 $x1786 $x6084 $x1698 $x3086 $x5591 $x8365 $x5753 $x6308)))))))))))
(assert
 (let (($x3199 (= cell_5_7 9)))
 (let (($x4731 (= cell_5_7 8)))
 (let (($x604 (= cell_5_7 7)))
 (let (($x5066 (= cell_5_7 6)))
 (let (($x3990 (= cell_5_7 5)))
 (let (($x1218 (= cell_5_7 4)))
 (let (($x3929 (= cell_5_7 3)))
 (let (($x4361 (= cell_5_7 2)))
 (let (($x5169 (= cell_5_7 1)))
 (or $x5169 $x4361 $x3929 $x1218 $x3990 $x5066 $x604 $x4731 $x3199)))))))))))
(assert
 (let (($x1948 (= cell_6_7 1)))
 (or $x1948 (= cell_6_7 2) (= cell_6_7 3) (= cell_6_7 4) (= cell_6_7 5) (= cell_6_7 6) (= cell_6_7 7) (= cell_6_7 8) (= cell_6_7 9))))
(assert
 (let (($x4145 (= cell_7_7 9)))
 (let (($x5467 (= cell_7_7 8)))
 (let (($x1360 (= cell_7_7 7)))
 (let (($x3786 (= cell_7_7 6)))
 (let (($x2238 (= cell_7_7 5)))
 (let (($x5056 (= cell_7_7 4)))
 (let (($x1521 (= cell_7_7 3)))
 (let (($x496 (= cell_7_7 2)))
 (let (($x1854 (= cell_7_7 1)))
 (or $x1854 $x496 $x1521 $x5056 $x2238 $x3786 $x1360 $x5467 $x4145)))))))))))
(assert
 (let (($x4548 (= cell_8_7 2)))
 (let (($x4201 (= cell_8_7 1)))
 (or $x4201 $x4548 (= cell_8_7 3) (= cell_8_7 4) (= cell_8_7 5) (= cell_8_7 6) (= cell_8_7 7) (= cell_8_7 8) (= cell_8_7 9)))))
(assert
 (let (($x3348 (= cell_9_7 1)))
 (or $x3348 (= cell_9_7 2) (= cell_9_7 3) (= cell_9_7 4) (= cell_9_7 5) (= cell_9_7 6) (= cell_9_7 7) (= cell_9_7 8) (= cell_9_7 9))))
(assert
 (let (($x4091 (= cell_1_8 2)))
 (or (= cell_1_8 1) $x4091 (= cell_1_8 3) (= cell_1_8 4) (= cell_1_8 5) (= cell_1_8 6) (= cell_1_8 7) (= cell_1_8 8) (= cell_1_8 9))))
(assert
 (let (($x1665 (= cell_2_8 9)))
 (let (($x5840 (= cell_2_8 8)))
 (let (($x3829 (= cell_2_8 7)))
 (let (($x601 (= cell_2_8 6)))
 (let (($x6344 (= cell_2_8 5)))
 (let (($x375 (= cell_2_8 4)))
 (let (($x146 (= cell_2_8 3)))
 (let (($x4532 (= cell_2_8 2)))
 (let (($x6457 (= cell_2_8 1)))
 (or $x6457 $x4532 $x146 $x375 $x6344 $x601 $x3829 $x5840 $x1665)))))))))))
(assert
 (let (($x281 (= cell_3_8 9)))
 (let (($x1859 (= cell_3_8 8)))
 (let (($x4434 (= cell_3_8 7)))
 (let (($x3520 (= cell_3_8 6)))
 (let (($x3861 (= cell_3_8 5)))
 (let (($x4616 (= cell_3_8 4)))
 (let (($x4672 (= cell_3_8 3)))
 (let (($x2633 (= cell_3_8 2)))
 (let (($x6014 (= cell_3_8 1)))
 (or $x6014 $x2633 $x4672 $x4616 $x3861 $x3520 $x4434 $x1859 $x281)))))))))))
(assert
 (let (($x3946 (= cell_4_8 9)))
 (let (($x2402 (= cell_4_8 8)))
 (let (($x2127 (= cell_4_8 7)))
 (let (($x5950 (= cell_4_8 6)))
 (let (($x2439 (= cell_4_8 5)))
 (let (($x9474 (= cell_4_8 4)))
 (let (($x4526 (= cell_4_8 3)))
 (let (($x3017 (= cell_4_8 2)))
 (let (($x1567 (= cell_4_8 1)))
 (or $x1567 $x3017 $x4526 $x9474 $x2439 $x5950 $x2127 $x2402 $x3946)))))))))))
(assert
 (let (($x4523 (= cell_5_8 1)))
 (or $x4523 (= cell_5_8 2) (= cell_5_8 3) (= cell_5_8 4) (= cell_5_8 5) (= cell_5_8 6) (= cell_5_8 7) (= cell_5_8 8) (= cell_5_8 9))))
(assert
 (let (($x1711 (= cell_6_8 2)))
 (let (($x4815 (= cell_6_8 1)))
 (or $x4815 $x1711 (= cell_6_8 3) (= cell_6_8 4) (= cell_6_8 5) (= cell_6_8 6) (= cell_6_8 7) (= cell_6_8 8) (= cell_6_8 9)))))
(assert
 (let (($x5932 (= cell_7_8 9)))
 (let (($x948 (= cell_7_8 8)))
 (let (($x3577 (= cell_7_8 7)))
 (let (($x1392 (= cell_7_8 6)))
 (let (($x3901 (= cell_7_8 5)))
 (let (($x5241 (= cell_7_8 4)))
 (let (($x6173 (= cell_7_8 3)))
 (let (($x4661 (= cell_7_8 2)))
 (let (($x3340 (= cell_7_8 1)))
 (or $x3340 $x4661 $x6173 $x5241 $x3901 $x1392 $x3577 $x948 $x5932)))))))))))
(assert
 (let (($x3875 (= cell_8_8 2)))
 (let (($x973 (= cell_8_8 1)))
 (or $x973 $x3875 (= cell_8_8 3) (= cell_8_8 4) (= cell_8_8 5) (= cell_8_8 6) (= cell_8_8 7) (= cell_8_8 8) (= cell_8_8 9)))))
(assert
 (let (($x3962 (= cell_9_8 2)))
 (let (($x5657 (= cell_9_8 1)))
 (or $x5657 $x3962 (= cell_9_8 3) (= cell_9_8 4) (= cell_9_8 5) (= cell_9_8 6) (= cell_9_8 7) (= cell_9_8 8) (= cell_9_8 9)))))
(assert
 (let (($x825 (= cell_1_9 9)))
 (let (($x1083 (= cell_1_9 8)))
 (let (($x4550 (= cell_1_9 7)))
 (let (($x5911 (= cell_1_9 6)))
 (let (($x3477 (= cell_1_9 5)))
 (let (($x3650 (= cell_1_9 4)))
 (let (($x2692 (= cell_1_9 3)))
 (let (($x5698 (= cell_1_9 2)))
 (let (($x6566 (= cell_1_9 1)))
 (or $x6566 $x5698 $x2692 $x3650 $x3477 $x5911 $x4550 $x1083 $x825)))))))))))
(assert
 (let (($x1790 (= cell_2_9 9)))
 (let (($x4493 (= cell_2_9 8)))
 (let (($x2773 (= cell_2_9 7)))
 (let (($x3714 (= cell_2_9 6)))
 (let (($x914 (= cell_2_9 5)))
 (let (($x5456 (= cell_2_9 4)))
 (let (($x8918 (= cell_2_9 3)))
 (let (($x987 (= cell_2_9 2)))
 (let (($x6157 (= cell_2_9 1)))
 (or $x6157 $x987 $x8918 $x5456 $x914 $x3714 $x2773 $x4493 $x1790)))))))))))
(assert
 (let (($x4718 (= cell_3_9 9)))
 (let (($x6309 (= cell_3_9 8)))
 (let (($x1579 (= cell_3_9 7)))
 (let (($x928 (= cell_3_9 6)))
 (let (($x400 (= cell_3_9 5)))
 (let (($x2768 (= cell_3_9 4)))
 (let (($x859 (= cell_3_9 3)))
 (let (($x3729 (= cell_3_9 2)))
 (let (($x4503 (= cell_3_9 1)))
 (or $x4503 $x3729 $x859 $x2768 $x400 $x928 $x1579 $x6309 $x4718)))))))))))
(assert
 (let (($x5013 (= cell_4_9 9)))
 (let (($x6215 (= cell_4_9 8)))
 (let (($x3798 (= cell_4_9 7)))
 (let (($x1703 (= cell_4_9 6)))
 (let (($x639 (= cell_4_9 5)))
 (let (($x5165 (= cell_4_9 4)))
 (let (($x3924 (= cell_4_9 3)))
 (let (($x4436 (= cell_4_9 2)))
 (let (($x743 (= cell_4_9 1)))
 (or $x743 $x4436 $x3924 $x5165 $x639 $x1703 $x3798 $x6215 $x5013)))))))))))
(assert
 (let (($x4539 (= cell_5_9 9)))
 (let (($x369 (= cell_5_9 8)))
 (let (($x2496 (= cell_5_9 7)))
 (let (($x4490 (= cell_5_9 6)))
 (let (($x3072 (= cell_5_9 5)))
 (let (($x3856 (= cell_5_9 4)))
 (let (($x3789 (= cell_5_9 3)))
 (let (($x3365 (= cell_5_9 2)))
 (let (($x2560 (= cell_5_9 1)))
 (or $x2560 $x3365 $x3789 $x3856 $x3072 $x4490 $x2496 $x369 $x4539)))))))))))
(assert
 (let (($x3866 (= cell_6_9 9)))
 (let (($x5769 (= cell_6_9 8)))
 (let (($x1610 (= cell_6_9 7)))
 (let (($x2866 (= cell_6_9 6)))
 (let (($x3791 (= cell_6_9 5)))
 (let (($x3290 (= cell_6_9 4)))
 (let (($x2342 (= cell_6_9 3)))
 (let (($x4658 (= cell_6_9 2)))
 (let (($x4302 (= cell_6_9 1)))
 (or $x4302 $x4658 $x2342 $x3290 $x3791 $x2866 $x1610 $x5769 $x3866)))))))))))
(assert
 (let (($x4052 (= cell_7_9 1)))
 (or $x4052 (= cell_7_9 2) (= cell_7_9 3) (= cell_7_9 4) (= cell_7_9 5) (= cell_7_9 6) (= cell_7_9 7) (= cell_7_9 8) (= cell_7_9 9))))
(assert
 (let (($x1265 (= cell_8_9 1)))
 (or $x1265 (= cell_8_9 2) (= cell_8_9 3) (= cell_8_9 4) (= cell_8_9 5) (= cell_8_9 6) (= cell_8_9 7) (= cell_8_9 8) (= cell_8_9 9))))
(assert
 (let (($x5645 (= cell_9_9 1)))
 (or $x5645 (= cell_9_9 2) (= cell_9_9 3) (= cell_9_9 4) (= cell_9_9 5) (= cell_9_9 6) (= cell_9_9 7) (= cell_9_9 8) (= cell_9_9 9))))
(assert
 (and (distinct cell_1_1 cell_1_2 cell_1_3 cell_1_4 cell_1_5 cell_1_6 cell_1_7 cell_1_8 cell_1_9) true))
(assert
 (and (distinct cell_2_1 cell_2_2 cell_2_3 cell_2_4 cell_2_5 cell_2_6 cell_2_7 cell_2_8 cell_2_9) true))
(assert
 (and (distinct cell_3_1 cell_3_2 cell_3_3 cell_3_4 cell_3_5 cell_3_6 cell_3_7 cell_3_8 cell_3_9) true))
(assert
 (and (distinct cell_4_1 cell_4_2 cell_4_3 cell_4_4 cell_4_5 cell_4_6 cell_4_7 cell_4_8 cell_4_9) true))
(assert
 (and (distinct cell_5_1 cell_5_2 cell_5_3 cell_5_4 cell_5_5 cell_5_6 cell_5_7 cell_5_8 cell_5_9) true))
(assert
 (and (distinct cell_6_1 cell_6_2 cell_6_3 cell_6_4 cell_6_5 cell_6_6 cell_6_7 cell_6_8 cell_6_9) true))
(assert
 (and (distinct cell_7_1 cell_7_2 cell_7_3 cell_7_4 cell_7_5 cell_7_6 cell_7_7 cell_7_8 cell_7_9) true))
(assert
 (and (distinct cell_8_1 cell_8_2 cell_8_3 cell_8_4 cell_8_5 cell_8_6 cell_8_7 cell_8_8 cell_8_9) true))
(assert
 (and (distinct cell_9_1 cell_9_2 cell_9_3 cell_9_4 cell_9_5 cell_9_6 cell_9_7 cell_9_8 cell_9_9) true))
(assert
 (and (distinct cell_1_1 cell_2_1 cell_3_1 cell_4_1 cell_5_1 cell_6_1 cell_7_1 cell_8_1 cell_9_1) true))
(assert
 (and (distinct cell_1_2 cell_2_2 cell_3_2 cell_4_2 cell_5_2 cell_6_2 cell_7_2 cell_8_2 cell_9_2) true))
(assert
 (and (distinct cell_1_3 cell_2_3 cell_3_3 cell_4_3 cell_5_3 cell_6_3 cell_7_3 cell_8_3 cell_9_3) true))
(assert
 (and (distinct cell_1_4 cell_2_4 cell_3_4 cell_4_4 cell_5_4 cell_6_4 cell_7_4 cell_8_4 cell_9_4) true))
(assert
 (and (distinct cell_1_5 cell_2_5 cell_3_5 cell_4_5 cell_5_5 cell_6_5 cell_7_5 cell_8_5 cell_9_5) true))
(assert
 (and (distinct cell_1_6 cell_2_6 cell_3_6 cell_4_6 cell_5_6 cell_6_6 cell_7_6 cell_8_6 cell_9_6) true))
(assert
 (and (distinct cell_1_7 cell_2_7 cell_3_7 cell_4_7 cell_5_7 cell_6_7 cell_7_7 cell_8_7 cell_9_7) true))
(assert
 (and (distinct cell_1_8 cell_2_8 cell_3_8 cell_4_8 cell_5_8 cell_6_8 cell_7_8 cell_8_8 cell_9_8) true))
(assert
 (and (distinct cell_1_9 cell_2_9 cell_3_9 cell_4_9 cell_5_9 cell_6_9 cell_7_9 cell_8_9 cell_9_9) true))
(assert
 (and (distinct cell_1_1 cell_1_2 cell_1_3 cell_2_1 cell_2_2 cell_2_3 cell_3_1 cell_3_2 cell_3_3) true))
(assert
 (and (distinct cell_1_4 cell_1_5 cell_1_6 cell_2_4 cell_2_5 cell_2_6 cell_3_4 cell_3_5 cell_3_6) true))
(assert
 (and (distinct cell_1_7 cell_1_8 cell_1_9 cell_2_7 cell_2_8 cell_2_9 cell_3_7 cell_3_8 cell_3_9) true))
(assert
 (and (distinct cell_4_1 cell_4_2 cell_4_3 cell_5_1 cell_5_2 cell_5_3 cell_6_1 cell_6_2 cell_6_3) true))
(assert
 (and (distinct cell_4_4 cell_4_5 cell_4_6 cell_5_4 cell_5_5 cell_5_6 cell_6_4 cell_6_5 cell_6_6) true))
(assert
 (and (distinct cell_4_7 cell_4_8 cell_4_9 cell_5_7 cell_5_8 cell_5_9 cell_6_7 cell_6_8 cell_6_9) true))
(assert
 (and (distinct cell_7_1 cell_7_2 cell_7_3 cell_8_1 cell_8_2 cell_8_3 cell_9_1 cell_9_2 cell_9_3) true))
(assert
 (and (distinct cell_7_4 cell_7_5 cell_7_6 cell_8_4 cell_8_5 cell_8_6 cell_9_4 cell_9_5 cell_9_6) true))
(assert
 (and (distinct cell_7_7 cell_7_8 cell_7_9 cell_8_7 cell_8_8 cell_8_9 cell_9_7 cell_9_8 cell_9_9) true))
(assert
 (let (($x3794 (and (distinct cell_5_9 cell_6_8 cell_7_7 cell_8_6) true)))
 (let (($x1132 (and (distinct cell_2_9 cell_3_8 cell_4_7 cell_5_6 cell_6_5 cell_7_4 cell_8_3 cell_9_2) true)))
 (let (($x3307 (and (distinct cell_1_8 cell_2_7 cell_3_6 cell_4_5 cell_5_4 cell_6_3 cell_7_2 cell_8_1) true)))
 (let (($x605 (and (distinct cell_1_5 cell_2_4 cell_3_3 cell_4_2) true)))
 (let (($x6443 (and (distinct cell_5_1 cell_6_2 cell_7_3 cell_8_4) true)))
 (let (($x4258 (and (distinct cell_2_1 cell_3_2 cell_4_3 cell_5_4 cell_6_5 cell_7_6 cell_8_7 cell_9_8) true)))
 (let (($x5583 (and (distinct cell_1_2 cell_2_3 cell_3_4 cell_4_5 cell_5_6 cell_6_7 cell_7_8 cell_8_9) true)))
 (let (($x1768 (and (distinct cell_1_5 cell_2_6 cell_3_7 cell_4_8) true)))
 (and $x1768 $x5583 $x4258 $x6443 $x605 $x3307 $x1132 $x3794))))))))))
(assert
 (= cell_4_1 2))
(check-sat)
